outputs/case_325.model.txt
company_total_issued_shares = 100000000
investment_cost_otc_stock_and_others = 0
investment_cost_per_company_stock_and_bonds = 0
investment_cost_unrated_short_term_and_bonds_total = 192800000
post_office_transferred_deposits = 50000000
investment_cost_unrated_short_term_and_bonds = 136000000
total_deposits = 700000000
foreign_currency_deposits = 50000000
issuer_or_guarantor_has_credit_rating = True
investment_cost_stock_total = 0
cash_dividends_distributed = -1000000000
original_cost_long_term_bank_shares = 0
authority_adjusted_investment_limit = 0
time_deposits = 300000000
current_year_cash_capital_increase = 0
calculation_base = 1000000000
financial_bonds_issued_amount = 100000000
checking_deposits = 100000000
original_cost_non_bank_enterprise_investments = 0
investment_limit_stock_total = 1
securities_held_over_one_year_included_in_limits = True
net_worth_last_year_after_settlement = 0
investment_limit_securities_held_over_one_year = 1
investment_limit_otc_stock_and_others = 1
investment_limit_per_company_stock_and_bonds = 1
investment_limit_buy_sell_back_short_term_exclusion = True
investment_limit_unrated_short_term_and_bonds_total = 1
investment_limit_unrated_short_term_and_bonds = 1
demand_deposits = 200000000
investment_limit_adjustable_by_authority = 0
buy_back_condition_purchase_excluded = True
penalty = False
buy_back_condition_sale_included = True